Route #1: 26
Route #2: 4
Route #3: 6 2 30 48 47 36
Route #4: 17 40 12 39 9
Route #5: 34 46 8 35 7 19 13
Route #6: 45 29 5 15 37 20 27
Route #7: 21 28 22 42 41 43 23
Route #8: 16 33 1 49 24 18 3
Route #9: 44 32 25 31 10
Route #10: 38 11 14
cost: 712.4144857809212
